NAME : portcgen-24-32
COMMENT : portcgen N=24, seed=32
TYPE : TSP
DIMENSION : 24
EDGE_WEIGHT_TYPE : EUC_2D
NODE_COORD_SECTION
1 -124367 -384237
2 -13878 -33536
3 -87394 249954
4 205443 -130701
5 -66674 -175641
6 -20849 -174273
7 -64554 154125
8 -6494 65214
9 31013 200066
10 -338386 -52564
11 -269962 47271
12 482007 -202902
13 -282356 30895
14 82206 -116951
15 -101269 -171622
16 -221652 -156442
17 -110954 -120871
18 227544 -114778
19 101414 277150
20 9052 42893
21 41673 -69695
22 152583 32599
23 -69696 54389
24 -53297 10220
